119 48 011 1
1
330 113 1
288 114 1
255 115 1
247 116 1
246 117 1
283 118 1
280 119 1
301 108 1
277 109 1
270 110 1
350 111 1
358 112 1
254 113 1
328 114 1
292 115 1
264 116 1
316 117 1
226 118 1
239 119 1
277 108 1
271 109 1
292 110 1
216 111 1
261 112 1
299 113 1
238 114 1
257 115 1
248 116 1
312 117 1
334 118 1
296 119 1
354 108 1
280 109 1
261 110 1
275 111 1
289 112 1
253 113 1
256 114 1
264 115 1
226 116 1
234 117 1
278 118 1
305 119 1
295 108 1
399 109 1
318 110 1
305 111 1
244 112 1
1
1
1
1
1
1
1
1
1
1
1
1
1
1
1
1
1
1
1
1
1
1
1
1
1
1
1
1
1
1
1
1
1
1
1
1
1
1
1
1
1
1
1
1
1
1
1
1
1
1
1
1
1
1
1
1
1
1
1 9 300 21 276 33 353 45 294
1 10 276 22 270 34 279 46 398
1 11 269 23 291 35 260 47 317
1 12 349 24 215 36 274 48 304
1 13 357 25 260 37 288 49 243
1 2 329 14 253 26 298 38 252
1 3 287 15 327 27 237 39 255
1 4 254 16 291 28 256 40 263
1 5 246 17 263 29 247 41 225
1 6 245 18 315 30 311 42 233
1 7 282 19 225 31 333 43 277
1 8 279 20 238 32 295 44 304
